10J3M/DAT/10J3MNNL-2.dat
10 3
30.9281 30.9281
30.0301 30.0301
30.8305 30.8305
20.0944 20.0944
23.328 23.328
24.7641 24.7641
25.5251 25.5251
24.9061 24.9061
22.0044 22.0044
21.7028 21.7028
254.1136