10J3M/SOL/10J3MNNL-2.sol
solution status: optimal solution found
objective value:                     78.8595333333333
x#1#2                                               1 	(obj:0)
x#2#1                                               1 	(obj:0)
x#3#2                                               1 	(obj:0)
x#4#1                                               1 	(obj:0)
x#5#3                                               1 	(obj:0)
x#6#1                                               1 	(obj:0)
x#7#1                                               1 	(obj:0)
x#8#2                               0.270944862891802 	(obj:0)
x#8#3                               0.729055137108198 	(obj:0)
x#9#3                                               1 	(obj:0)
x#10#1                              0.166778226954727 	(obj:0)
x#10#2                              0.833221773045273 	(obj:0)
z                                    78.8595333333333 	(obj:1)
